NAME          
ROWS
 N  OBJ
 L  c1
 L  c2
COLUMNS
    MARKER    'MARKER'                 'INTORG'
    x[1]      c1        839
    x[1]      c2        241
    x[1]      OBJ       -138
    x[2]      c1        958
    x[2]      c2        269
    x[2]      OBJ       -833
    x[3]      c1        471
    x[3]      c2        277
    x[3]      OBJ       -623
    x[4]      c1        782
    x[4]      c2        724
    x[4]      OBJ       -516
    x[5]      c1        824
    x[5]      c2        12
    x[5]      OBJ       -271
    x[6]      c1        656
    x[6]      c2        243
    x[6]      OBJ       -518
    x[7]      c1        21
    x[7]      c2        233
    x[7]      OBJ       -588
    x[8]      c1        830
    x[8]      c2        2
    x[8]      OBJ       -56
    x[9]      c1        643
    x[9]      c2        562
    x[9]      OBJ       -771
    x[10]     c1        547
    x[10]     c2        105
    x[10]     OBJ       -628
    x[11]     c1        806
    x[11]     c2        264
    x[11]     OBJ       -553
    x[12]     c1        256
    x[12]     c2        859
    x[12]     OBJ       -274
    x[13]     c1        501
    x[13]     c2        573
    x[13]     OBJ       -7
    x[14]     c1        730
    x[14]     c2        313
    x[14]     OBJ       -355
    x[15]     c1        150
    x[15]     c2        5
    x[15]     OBJ       -172
    x[16]     c1        380
    x[16]     c2        252
    x[16]     OBJ       -662
    x[17]     c1        272
    x[17]     c2        651
    x[17]     OBJ       -481
    x[18]     c1        349
    x[18]     c2        445
    x[18]     OBJ       -589
    x[19]     c1        512
    x[19]     c2        160
    x[19]     OBJ       -549
    x[20]     c1        232
    x[20]     c2        669
    x[20]     OBJ       -690
    x[21]     c1        858
    x[21]     c2        870
    x[21]     OBJ       -600
    x[22]     c1        951
    x[22]     c2        84
    x[22]     OBJ       -343
    x[23]     c1        399
    x[23]     c2        964
    x[23]     OBJ       -956
    x[24]     c1        255
    x[24]     c2        769
    x[24]     OBJ       -270
    x[25]     c1        842
    x[25]     c2        254
    x[25]     OBJ       -875
RHS
    rhs       c1        7032
    rhs       c2        4900
RANGES
BOUNDS
 BV bounds    x[1]
 BV bounds    x[2]
 BV bounds    x[3]
 BV bounds    x[4]
 BV bounds    x[5]
 BV bounds    x[6]
 BV bounds    x[7]
 BV bounds    x[8]
 BV bounds    x[9]
 BV bounds    x[10]
 BV bounds    x[11]
 BV bounds    x[12]
 BV bounds    x[13]
 BV bounds    x[14]
 BV bounds    x[15]
 BV bounds    x[16]
 BV bounds    x[17]
 BV bounds    x[18]
 BV bounds    x[19]
 BV bounds    x[20]
 BV bounds    x[21]
 BV bounds    x[22]
 BV bounds    x[23]
 BV bounds    x[24]
 BV bounds    x[25]
ENDATA
